(declare-fun v1 () (_ BitVec 16))
(declare-fun v21 () (_ BitVec 8))
(assert
(let (($e38 (_ bv108 7)))
(let (($e209 (concat false $e38)))
(let (($e210 (bvand        $e209         v21   )))
(let (($e211 (concat false $e210)))
(let (($e313 (concat $e38 $e211)))
(let (($e314 (bvand v1    $e313)))
(let (($e350 (   extract      v21)))
             (ite        $e350  $e313 $e314)
                                                                                                                                                                                                                                                                                                                                                                                                                                                                                                                                                                                                                                                                                                                                                                                                                                                                                                                                                                                                                                                                                                                                                                                                                                                                                                                                                                                                                                                                                                                                                                                                                                                                                                                                                                                                                                                                                                                                                                                                                                                                                                                                                                                                                                                                                                                                                                                                                                                                                                                                                                                                                                                                                                                                                                                                                                                                                                                                                                                                                                                                                                                                                                                                                                                                                                                                                                                                                                                                                                                                                                                                                                                                                                                                                                                                                                                                                                                                                                                                                                                                                                                                                                                                                                                                                                                                                                                                                                                                                                                                                                                                                                                                                                                                                                                                                                                                                                                                                                                                                                                                                                                                                                                                                                                                                                                                                                                                                                                                                                                                                                                                                                                                                                                                                                                                                                                                                                                                                                                                                                                                                                                                                                                                                                                                                                                                                                          )                                   ))                                                                                                     )))                                                                                                                                          )                                     )
